9
2147483647 55 3 17 13 93 28 7 36 
55 2147483647 67 3 79 46 72 30 90 
3 67 2147483647 20 20 2 97 45 63 
17 3 20 2147483647 23 48 29 94 82 
13 79 20 23 2147483647 12 39 59 65 
93 46 2 48 12 2147483647 72 48 93 
28 72 97 29 39 72 2147483647 26 86 
7 30 45 94 59 48 26 2147483647 56 
36 90 63 82 65 93 86 56 2147483647 
